experiments/knapsack_bounded/knapsack_bounded_10_3.mps
NAME
ROWS
 N  OBJ
 L  c1
 L  c2
 L  c3
 L  c4
 L  c5
 L  c6
 L  c7
 L  c8
 L  c9
 L  c10
 L  c11
COLUMNS
    MARKER    'MARKER'                 'INTORG'
    x[1]      c1        554
    x[1]      c2        1
    x[1]      OBJ       -676
    x[2]      c1        875
    x[2]      c3        1
    x[2]      OBJ       -43
    x[3]      c1        340
    x[3]      c4        1
    x[3]      OBJ       -118
    x[4]      c1        654
    x[4]      c5        1
    x[4]      OBJ       -918
    x[5]      c1        975
    x[5]      c6        1
    x[5]      OBJ       -209
    x[6]      c1        232
    x[6]      c7        1
    x[6]      OBJ       -392
    x[7]      c1        18
    x[7]      c8        1
    x[7]      OBJ       -869
    x[8]      c1        641
    x[8]      c9        1
    x[8]      OBJ       -635
    x[9]      c1        632
    x[9]      c10       1
    x[9]      OBJ       -796
    x[10]     c1        964
    x[10]     c11       1
    x[10]     OBJ       -987
    MARKER    'MARKER'                 'INTEND'
RHS
    rhs       c1        2942
    rhs       c2        2
    rhs       c3        10
    rhs       c4        7
    rhs       c5        3
    rhs       c6        9
    rhs       c7        8
    rhs       c8        4
    rhs       c9        1
    rhs       c10       5
    rhs       c11       6
RANGES
BOUNDS
 LO bounds    x[1]      0
 PL bounds    x[1]
 LO bounds    x[2]      0
 PL bounds    x[2]
 LO bounds    x[3]      0
 PL bounds    x[3]
 LO bounds    x[4]      0
 PL bounds    x[4]
 LO bounds    x[5]      0
 PL bounds    x[5]
 LO bounds    x[6]      0
 PL bounds    x[6]
 LO bounds    x[7]      0
 PL bounds    x[7]
 LO bounds    x[8]      0
 PL bounds    x[8]
 LO bounds    x[9]      0
 PL bounds    x[9]
 LO bounds    x[10]     0
 PL bounds    x[10]
ENDATA
