experiments/knapsack_bounded/knapsack_bounded_10_3.mps.log
Algorithm statistics:
zero_reductions => 3967
max_basis_size => 275
queued_pairs => 0
built_pairs => 5290
reduced_pairs => 4308
eliminated_by_truncation => 76
removed_by_autoreduction => 0
eliminated_by_gcd => 32385
time => 0.010649065
memory => 0.005462683737277985
4ti2 results
4ti2 time => 0.023337554
